p cnf 271 781
-12 -2 0
-12 5 0
12 2 -5 0
-13 -5 0
-13 -9 0
13 5 9 0
-14 -12 0
-14 -13 0
14 12 13 0
-15 1 0
-15 -14 0
15 -1 14 0
-16 2 0
-16 5 0
16 -2 -5 0
-17 -1 0
-17 16 0
17 1 -16 0
-18 -15 0
-18 -17 0
18 15 17 0
-19 -7 0
-19 -18 0
19 7 18 0
-20 -8 0
-20 19 0
20 8 -19 0
-21 5 0
-21 9 0
21 -5 -9 0
-22 -20 0
-22 -21 0
22 20 21 0
-23 -6 0
-23 -22 0
23 6 22 0
-24 -5 0
-24 8 0
24 5 -8 0
-25 2 0
-25 -3 0
25 -2 3 0
-26 6 0
-26 -8 0
26 -6 8 0
-27 25 0
-27 26 0
27 -25 -26 0
-28 -24 0
-28 -27 0
28 24 27 0
-29 4 0
-29 -28 0
29 -4 28 0
-30 5 0
-30 8 0
30 -5 -8 0
-31 -4 0
-31 30 0
31 4 -30 0
-32 -29 0
-32 -31 0
32 29 31 0
-33 -9 0
-33 -32 0
33 9 32 0
-34 6 0
-34 9 0
34 -6 -9 0
-35 -5 0
-35 34 0
35 5 -34 0
-36 -33 0
-36 -35 0
36 33 35 0
-37 -23 0
-37 36 0
37 23 -36 0
-38 -10 0
-38 -37 0
38 10 37 0
-39 5 0
-39 -9 0
39 -5 9 0
-40 -4 0
-40 39 0
40 4 -39 0
-41 -5 0
-41 -8 0
41 5 8 0
-42 -40 0
-42 -41 0
42 40 41 0
-43 -3 0
-43 -42 0
43 3 42 0
-44 2 0
-44 43 0
44 -2 -43 0
-45 -2 0
-45 3 0
45 2 -3 0
-46 -8 0
-46 -9 0
46 8 9 0
-47 45 0
-47 46 0
47 -45 -46 0
-48 -10 0
-48 -47 0
48 10 47 0
-49 -44 0
-49 48 0
49 44 -48 0
-50 -7 0
-50 -49 0
50 7 49 0
-51 6 0
-51 50 0
51 -6 -50 0
-52 7 0
-52 10 0
52 -7 -10 0
-53 -6 0
-53 52 0
53 6 -52 0
-54 -51 0
-54 -53 0
54 51 53 0
-55 -38 0
-55 54 0
55 38 -54 0
-56 -11 0
-56 -55 0
56 11 55 0
-57 -3 0
-57 4 0
57 3 -4 0
-58 3 0
-58 -4 0
58 -3 4 0
-59 -57 0
-59 -58 0
59 57 58 0
-60 -10 0
-60 -59 0
60 10 59 0
-61 -9 0
-61 60 0
61 9 -60 0
-62 -11 0
-62 -61 0
62 11 61 0
-63 -8 0
-63 -62 0
63 8 62 0
-64 10 0
-64 11 0
64 -10 -11 0
-65 9 0
-65 64 0
65 -9 -64 0
-66 -63 0
-66 -65 0
66 63 65 0
-67 7 0
-67 -66 0
67 -7 66 0
-68 -7 0
-68 11 0
68 7 -11 0
-69 8 0
-69 68 0
69 -8 -68 0
-70 -67 0
-70 -69 0
70 67 69 0
-71 -56 0
-71 70 0
71 56 -70 0
-72 -5 0
-72 -10 0
72 5 10 0
-73 -3 0
-73 -8 0
73 3 8 0
-74 -72 0
-74 -73 0
74 72 73 0
-75 -2 0
-75 -74 0
75 2 74 0
-76 2 0
-76 3 0
76 -2 -3 0
-77 1 0
-77 76 0
77 -1 -76 0
-78 -1 0
-78 -3 0
78 1 3 0
-79 -77 0
-79 -78 0
79 77 78 0
-80 -8 0
-80 -79 0
80 8 79 0
-81 5 0
-81 80 0
81 -5 -80 0
-82 9 0
-82 -10 0
82 -9 10 0
-83 -81 0
-83 -82 0
83 81 82 0
-84 -75 0
-84 83 0
84 75 -83 0
-85 -7 0
-85 -84 0
85 7 84 0
-86 4 0
-86 5 0
86 -4 -5 0
-87 8 0
-87 -86 0
87 -8 86 0
-88 -10 0
-88 87 0
88 10 -87 0
-89 -9 0
-89 88 0
89 9 -88 0
-90 -8 0
-90 10 0
90 8 -10 0
-91 -89 0
-91 -90 0
91 89 90 0
-92 -85 0
-92 91 0
92 85 -91 0
-93 -6 0
-93 -92 0
93 6 92 0
-94 -9 0
-94 -10 0
94 9 10 0
-95 5 0
-95 94 0
95 -5 -94 0
-96 -7 0
-96 -8 0
96 7 8 0
-97 -5 0
-97 96 0
97 5 -96 0
-98 -95 0
-98 -97 0
98 95 97 0
-99 3 0
-99 -98 0
99 -3 98 0
-100 2 0
-100 99 0
100 -2 -99 0
-101 8 0
-101 -10 0
101 -8 10 0
-102 39 0
-102 101 0
102 -39 -101 0
-103 -100 0
-103 -102 0
103 100 102 0
-104 4 0
-104 -103 0
104 -4 103 0
-105 5 0
-105 82 0
105 -5 -82 0
-106 8 0
-106 10 0
106 -8 -10 0
-107 -105 0
-107 -106 0
107 105 106 0
-108 7 0
-108 -107 0
108 -7 107 0
-109 -104 0
-109 -108 0
109 104 108 0
-110 6 0
-110 -109 0
110 -6 109 0
-111 -5 0
-111 82 0
111 5 -82 0
-112 -90 0
-112 -111 0
112 90 111 0
-113 -7 0
-113 -112 0
113 7 112 0
-114 -110 0
-114 -113 0
114 110 113 0
-115 -93 0
-115 114 0
115 93 -114 0
-116 -11 0
-116 -115 0
116 11 115 0
-117 7 0
-117 -10 0
117 -7 10 0
-118 -5 0
-118 117 0
118 5 -117 0
-119 6 0
-119 -7 0
119 -6 7 0
-120 -4 0
-120 119 0
120 4 -119 0
-121 -118 0
-121 -120 0
121 118 120 0
-122 -3 0
-122 -121 0
122 3 121 0
-123 -2 0
-123 119 0
123 2 -119 0
-124 -118 0
-124 -123 0
124 118 123 0
-125 -4 0
-125 -124 0
125 4 124 0
-126 3 0
-126 4 0
126 -3 -4 0
-127 5 0
-127 117 0
127 -5 -117 0
-128 126 0
-128 127 0
128 -126 -127 0
-129 -11 0
-129 -128 0
129 11 128 0
-130 -125 0
-130 129 0
130 125 -129 0
-131 -122 0
-131 130 0
131 122 -130 0
-132 -8 0
-132 -131 0
132 8 131 0
-133 -68 0
-133 -132 0
133 68 132 0
-134 -9 0
-134 -133 0
134 9 133 0
-135 7 0
-135 11 0
135 -7 -11 0
-136 8 0
-136 135 0
136 -8 -135 0
-137 82 0
-137 136 0
137 -82 -136 0
-138 -134 0
-138 -137 0
138 134 137 0
-139 -116 0
-139 138 0
139 116 -138 0
-140 5 0
-140 -7 0
140 -5 7 0
-141 1 0
-141 -4 0
141 -1 4 0
-142 140 0
-142 141 0
142 -140 -141 0
-143 -5 0
-143 6 0
143 5 -6 0
-144 4 0
-144 143 0
144 -4 -143 0
-145 -142 0
-145 -144 0
145 142 144 0
-146 2 0
-146 -145 0
146 -2 145 0
-147 -5 0
-147 -7 0
147 5 7 0
-148 1 0
-148 2 0
148 -1 -2 0
-149 5 0
-149 -148 0
149 -5 148 0
-150 4 0
-150 149 0
150 -4 -149 0
-151 -147 0
-151 -150 0
151 147 150 0
-152 -6 0
-152 -151 0
152 6 151 0
-153 -146 0
-153 -152 0
153 146 152 0
-154 3 0
-154 -153 0
154 -3 153 0
-155 4 0
-155 -7 0
155 -4 7 0
-156 -3 0
-156 155 0
156 3 -155 0
-157 -4 0
-157 6 0
157 4 -6 0
-158 -156 0
-158 -157 0
158 156 157 0
-159 5 0
-159 -158 0
159 -5 158 0
-160 -154 0
-160 -159 0
160 154 159 0
-161 -8 0
-161 -160 0
161 8 160 0
-162 -6 0
-162 7 0
162 6 -7 0
-163 3 0
-163 162 0
163 -3 -162 0
-164 -123 0
-164 -163 0
164 123 163 0
-165 5 0
-165 -164 0
165 -5 164 0
-166 4 0
-166 165 0
166 -4 -165 0
-167 6 0
-167 -86 0
167 -6 86 0
-168 7 0
-168 167 0
168 -7 -167 0
-169 -166 0
-169 -168 0
169 166 168 0
-170 -161 0
-170 169 0
170 161 -169 0
-171 -9 0
-171 -170 0
171 9 170 0
-172 -7 0
-172 8 0
172 7 -8 0
-173 4 0
-173 172 0
173 -4 -172 0
-174 7 0
-174 -8 0
174 -7 8 0
-175 -3 0
-175 174 0
175 3 -174 0
-176 -173 0
-176 -175 0
176 173 175 0
-177 6 0
-177 -176 0
177 -6 176 0
-178 5 0
-178 177 0
178 -5 -177 0
-179 5 0
-179 6 0
179 -5 -6 0
-180 8 0
-180 -179 0
180 -8 179 0
-181 7 0
-181 180 0
181 -7 -180 0
-182 -178 0
-182 -181 0
182 178 181 0
-183 -171 0
-183 182 0
183 171 -182 0
-184 -10 0
-184 -183 0
184 10 183 0
-185 5 0
-185 7 0
185 -5 -7 0
-186 26 0
-186 185 0
186 -26 -185 0
-187 -172 0
-187 -186 0
187 172 186 0
-188 9 0
-188 -187 0
188 -9 187 0
-189 -184 0
-189 -188 0
189 184 188 0
-190 -11 0
-190 -189 0
190 11 189 0
-191 9 0
-191 11 0
191 -9 -11 0
-192 -9 0
-192 10 0
192 9 -10 0
-193 6 0
-193 192 0
193 -6 -192 0
-194 -191 0
-194 -193 0
194 191 193 0
-195 8 0
-195 -194 0
195 -8 194 0
-196 7 0
-196 195 0
196 -7 -195 0
-197 6 0
-197 8 0
197 -6 -8 0
-198 9 0
-198 -197 0
198 -9 197 0
-199 -11 0
-199 -198 0
199 11 198 0
-200 10 0
-200 -199 0
200 -10 199 0
-201 -196 0
-201 -200 0
201 196 200 0
-202 -190 0
-202 201 0
202 190 -201 0
-203 7 0
-203 8 0
203 -7 -8 0
-204 -3 0
-204 203 0
204 3 -203 0
-205 6 0
-205 21 0
205 -6 -21 0
-206 204 0
-206 205 0
206 -204 -205 0
-207 -6 0
-207 13 0
207 6 -13 0
-208 96 0
-208 207 0
208 -96 -207 0
-209 -206 0
-209 -208 0
209 206 208 0
-210 -10 0
-210 -209 0
210 10 209 0
-211 -11 0
-211 210 0
211 11 -210 0
-212 -4 0
-212 211 0
212 4 -211 0
-213 6 0
-213 7 0
213 -6 -7 0
-214 5 0
-214 -8 0
214 -5 8 0
-215 213 0
-215 214 0
215 -213 -214 0
-216 -6 0
-216 -7 0
216 6 7 0
-217 148 0
-217 216 0
217 -148 -216 0
-218 -215 0
-218 -217 0
218 215 217 0
-219 4 0
-219 -218 0
219 -4 218 0
-220 3 0
-220 219 0
220 -3 -219 0
-221 -5 0
-221 -174 0
221 5 174 0
-222 -8 0
-222 -119 0
222 8 119 0
-223 -4 0
-223 -222 0
223 4 222 0
-224 8 0
-224 -213 0
224 -8 213 0
-225 -7 0
-225 -76 0
225 7 76 0
-226 6 0
-226 225 0
226 -6 -225 0
-227 -10 0
-227 -226 0
227 10 226 0
-228 -224 0
-228 227 0
228 224 -227 0
-229 -223 0
-229 228 0
229 223 -228 0
-230 -221 0
-230 229 0
230 221 -229 0
-231 -220 0
-231 230 0
231 220 -230 0
-232 -9 0
-232 -231 0
232 9 231 0
-233 4 0
-233 9 0
233 -4 -9 0
-234 -58 0
-234 -233 0
234 58 233 0
-235 7 0
-235 -234 0
235 -7 234 0
-236 6 0
-236 235 0
236 -6 -235 0
-237 8 0
-237 236 0
237 -8 -236 0
-238 -10 0
-238 237 0
238 10 -237 0
-239 5 0
-239 238 0
239 -5 -238 0
-240 8 0
-240 213 0
240 -8 -213 0
-241 10 0
-241 -240 0
241 -10 240 0
-242 -239 0
-242 -241 0
242 239 241 0
-243 -232 0
-243 242 0
243 232 -242 0
-244 -11 0
-244 -243 0
244 11 243 0
-245 7 0
-245 9 0
245 -7 -9 0
-246 197 0
-246 245 0
246 -197 -245 0
-247 2 0
-247 4 0
247 -2 -4 0
-248 1 0
-248 247 0
248 -1 -247 0
-249 -6 0
-249 -8 0
249 6 8 0
-250 -9 0
-250 249 0
250 9 -249 0
-251 248 0
-251 250 0
251 -248 -250 0
-252 -246 0
-252 -251 0
252 246 251 0
-253 3 0
-253 -252 0
253 -3 252 0
-254 9 0
-254 197 0
254 -9 -197 0
-255 4 0
-255 7 0
255 -4 -7 0
-256 254 0
-256 255 0
256 -254 -255 0
-257 -253 0
-257 -256 0
257 253 256 0
-258 5 0
-258 -257 0
258 -5 257 0
-259 126 0
-259 185 0
259 -126 -185 0
-260 6 0
-260 -259 0
260 -6 259 0
-261 -162 0
-261 -260 0
261 162 260 0
-262 -8 0
-262 -261 0
262 8 261 0
-263 -9 0
-263 262 0
263 9 -262 0
-264 -10 0
-264 -11 0
264 10 11 0
-265 -263 0
-265 264 0
265 263 -264 0
-266 -258 0
-266 265 0
266 258 -265 0
-267 3 0
-267 86 0
267 -3 -86 0
-268 213 0
-268 267 0
268 -213 -267 0
-269 -10 0
-269 -268 0
269 10 268 0
-270 -11 0
-270 269 0
270 11 -269 0
-271 46 0
-271 270 0
271 -46 -270 0
-271 0
